
Gurobi 6.5.2 (linux64) logging started Tue Sep  6 10:06:19 2016

Optimize a model with 101 rows, 418 columns and 865 nonzeros
Coefficient statistics:
  Matrix range    [1e+00, 2e+00]
  Objective range [1e+00, 1e+02]
  Bounds range    [1e+00, 1e+00]
  RHS range       [1e+00, 1e+00]
Presolve removed 40 rows and 31 columns
Presolve time: 0.00s
Presolved: 61 rows, 387 columns, 783 nonzeros
Variable types: 0 continuous, 387 integer (387 binary)

Root relaxation: objective 9.605000e+02, 58 iterations, 0.00 seconds

    Nodes    |    Current Node    |     Objective Bounds      |     Work
 Expl Unexpl |  Obj  Depth IntInf | Incumbent    BestBd   Gap | It/Node Time

     0     0  960.50000    0    4          -  960.50000      -     -    0s
     0     0  976.00000    0    2          -  976.00000      -     -    0s
     0     0  979.00000    0    4          -  979.00000      -     -    0s
*    0     0               0     986.0000000  986.00000  0.00%     -    0s

Cutting planes:
  Gomory: 4
  Cover: 15
  Lazy constraints: 4

Explored 0 nodes (88 simplex iterations) in 0.01 seconds
Thread count was 8 (of 8 available processors)

Optimal solution found (tolerance 1.00e-04)
Best objective 9.860000000000e+02, best bound 9.860000000000e+02, gap 0.0%
